12
0 181 278 261 383 108 402 310 470 119 444 437 
181 0 244 436 150 482 289 367 363 374 200 337 
278 244 0 458 357 416 377 164 276 473 302 342 
261 436 458 0 200 384 121 361 267 129 263 478 
383 150 357 200 0 100 283 423 437 427 359 487 
108 482 416 384 100 0 409 149 355 272 423 455 
402 289 377 121 283 409 0 109 382 312 426 259 
310 367 164 361 423 149 109 0 376 202 233 179 
470 363 276 267 437 355 382 376 0 445 333 463 
119 374 473 129 427 272 312 202 445 0 466 194 
444 200 302 263 359 423 426 233 333 466 0 231 
437 337 342 478 487 455 259 179 463 194 231 0 
